NAME : mtspf.pid5995.gtsp.161061383.tour
COMMENT : Length = 161061383
COMMENT : Found by LKH [Keld Helsgaun] Tue Mar  4 13:42:49 2025
TYPE : TOUR
DIMENSION : 90
TOUR_SECTION
1
82
79
80
81
13
14
11
12
6
2
7
44
45
46
43
10
5
77
78
75
76
9
4
31
32
33
34
74
71
72
73
35
36
37
38
86
83
84
85
27
28
29
30
42
39
40
41
55
56
57
58
90
87
88
89
49
50
47
48
70
67
68
69
54
51
52
53
66
63
64
65
15
16
17
18
23
24
25
26
3
61
62
59
60
8
20
21
22
19
-1
EOF
